c uprop, v00.0, 
c reading from data/prog889.c.cnf
c done reading: 0.004051
p cnf 77 293
-37 -44 0
-37 -47 0
37 44 47 0
-39 44 47 0
-39 -44 -47 0
39 -44 47 0
39 44 -47 0
-36 37 0
-36 -53 0
36 -37 53 0
-37 -38 53 0
37 -38 -53 0
37 38 53 0
-37 38 -53 0
36 -40 0
-40 -42 0
-36 40 42 0
-36 42 -46 0
36 -42 -46 0
36 42 46 0
-36 -42 46 0
40 -49 0
-49 -51 0
-40 49 51 0
-40 51 -55 0
40 -51 -55 0
40 51 55 0
-40 -51 55 0
-41 49 0
-34 -41 0
34 41 -49 0
34 -49 -50 0
-34 49 -50 0
34 49 50 0
-34 -49 50 0
-33 41 0
-31 -33 0
31 33 -41 0
-30 31 -41 0
-30 -31 41 0
30 31 41 0
30 -31 -41 0
-29 33 0
-27 -29 0
27 29 -33 0
-26 27 -33 0
-26 -27 33 0
26 27 33 0
26 -27 -33 0
-25 42 0
-25 44 0
25 -42 -44 0
-24 -42 -44 0
-24 42 44 0
24 -42 44 0
24 42 -44 0
23 -47 -51 0
23 -25 -51 0
23 -25 -47 0
-23 47 51 0
-23 25 51 0
-23 25 47 0
-22 -23 51 0
-22 -23 47 0
-22 -23 25 0
22 23 -51 0
22 23 -47 0
22 23 -25 0
22 -25 -47 -51 0
-22 25 47 51 0
21 -34 -53 0
21 -23 -34 0
21 -23 -53 0
-21 34 53 0
-21 23 34 0
-21 23 53 0
-20 -21 34 0
-20 -21 53 0
-20 -21 23 0
20 21 -34 0
20 21 -53 0
20 21 -23 0
20 -23 -34 -53 0
-20 23 34 53 0
19 -31 -42 0
19 -21 -31 0
19 -21 -42 0
-19 31 42 0
-19 21 31 0
-19 21 42 0
-19 31 -56 0
-19 42 -56 0
-19 21 -56 0
19 -31 56 0
19 -42 56 0
19 -21 56 0
-21 -31 -42 56 0
21 31 42 -56 0
-27 -51 57 0
-19 -27 57 0
-19 -51 57 0
27 51 -57 0
19 27 -57 0
19 51 -57 0
27 -57 -58 0
51 -57 -58 0
19 -57 -58 0
-27 57 58 0
-51 57 58 0
-19 57 58 0
-19 -27 -51 58 0
19 27 51 -58 0
34 -59 0
57 -59 0
-34 -57 59 0
-34 -57 -60 0
34 57 -60 0
-34 57 60 0
34 -57 60 0
31 -61 0
59 -61 0
-31 -59 61 0
-31 -59 -62 0
31 59 -62 0
-31 59 62 0
31 -59 62 0
27 -63 0
61 -63 0
-27 -61 63 0
-27 -61 -64 0
27 61 -64 0
-27 61 64 0
27 -61 64 0
-44 -65 0
-47 -65 0
44 47 65 0
44 47 -66 0
-44 -47 -66 0
-44 47 66 0
44 -47 66 0
65 -67 0
-53 -67 0
53 -65 67 0
53 -65 -68 0
-53 65 -68 0
53 65 68 0
-53 -65 68 0
67 -69 0
-24 -69 0
24 -67 69 0
24 -45 -67 0
-24 -45 67 0
24 45 67 0
-24 45 -67 0
-48 69 0
-22 -48 0
22 48 -69 0
22 -54 -69 0
-22 -54 69 0
22 54 69 0
-22 54 -69 0
-43 48 0
-20 -43 0
20 43 -48 0
20 -48 -52 0
-20 48 -52 0
20 48 52 0
-20 -48 52 0
-35 43 0
-35 -56 0
35 -43 56 0
-32 -43 56 0
-32 43 -56 0
32 43 56 0
32 -43 -56 0
-28 35 0
-28 -58 0
28 -35 58 0
-35 58 -70 0
35 -58 -70 0
35 58 70 0
-35 -58 70 0
28 -71 0
-60 -71 0
-28 60 71 0
-28 60 -72 0
28 -60 -72 0
28 60 72 0
-28 -60 72 0
71 -73 0
-62 -73 0
62 -71 73 0
62 -71 -74 0
-62 71 -74 0
62 71 74 0
-62 -71 74 0
73 -75 0
-64 -75 0
64 -73 75 0
64 -73 -76 0
-64 73 -76 0
64 73 76 0
-64 -73 76 0
75 -77 0
-63 -77 0
63 -75 77 0
-18 63 -75 0
-18 -63 75 0
18 63 75 0
18 -63 -75 0
-16 17 0
-16 44 0
16 -17 -44 0
-17 -44 0
17 44 0
14 -15 -47 0
14 -15 -16 0
14 -16 -47 0
-14 15 47 0
-14 15 16 0
-14 16 47 0
14 -15 0
14 -47 0
14 -16 0
-15 -16 -47 0
12 -13 -53 0
12 -13 -14 0
12 -14 -53 0
-12 13 53 0
-12 13 14 0
-12 14 53 0
12 -13 0
12 -53 0
12 -14 0
-13 -14 -53 0
10 -11 -24 0
10 -11 -12 0
10 -12 -24 0
-10 11 24 0
-10 11 12 0
-10 12 24 0
10 -11 0
10 -24 0
10 -12 0
-11 -12 -24 0
8 -9 -22 0
8 -9 -10 0
8 -10 -22 0
-8 9 22 0
-8 9 10 0
-8 10 22 0
-8 9 0
-8 22 0
-8 10 0
9 10 22 0
6 -7 -20 0
6 -7 -8 0
6 -8 -20 0
-6 7 20 0
-6 7 8 0
-6 8 20 0
-6 7 0
-6 20 0
-6 8 0
7 8 20 0
-5 56 0
-5 6 0
5 -6 -56 0
6 -56 0
-6 56 0
-4 58 0
-4 5 0
4 -5 -58 0
5 -58 0
-5 58 0
-3 60 0
-3 4 0
3 -4 -60 0
4 -60 0
-4 60 0
-2 62 0
-2 3 0
2 -3 -62 0
3 -62 0
-3 62 0
-1 64 0
-1 2 0
1 -2 -64 0
2 -64 0
-2 64 0
-1 -63 0
1 -63 0
-1 63 0
